1665053
0,53,18,48,22,59,4,39,28,24,29,40,5,63,66,37,6,10,65,25,54,33,45,42,21,51,32,56,17,9,13,43,30,49,27,15,58,35,7,52,36,61,38,50,34,67,14,57,8,16,26,44,64,1,47,3,19,12,46,23,62,20,2,60,41,55,31,11,0